webassembly/ejemplos_dzn/folder16_json_37.dzn
TERM = { '.', 's(5)', 's(4)', 'in_1', 'local_0', 'local_1', 'in_2', 'in_4', 'in_3', 's(6)', 's(1)', 's(0)', 'in_5', 's(3)', 'in_0'};
null = '.';
s = 16;
n = 12;
ndeps = 3;
max_registers_sz = 4;
NR = 1;
registers = [|'local_1', 's(4)'|];
dependencies = [|'i32.store16_3', 'call[function_index(0)]_6', |'call[function_index(0)]_6', 'call[function_index(1)]_11', |'call[function_index(1)]_11', 'i32.load8_s_13'|];
GET_ENUM = { GET1, GET2, GET3, GET4, GET5};
SET_ENUM = { SET1, SET2, SET3, SET4, SET5};
TEE_ENUM = { TEE1, TEE2, TEE3, TEE4, TEE5};
N = 8;
OP = { 'i32.const_0', 'i32.add_0', 'i32.sub_0', 'call[function_index(0)]_6', 'call[function_index(1)]_11', 'i32.store16_3', 'i32.load8_s_13', 'local.get_0' };
in_ops = [0, 2, 2, 2, 1, 2, 1, 0 ];
out_ops = [1, 1, 1, 0, 2, 0, 1, 1 ];
in1 = ['.', 'in_0', 's(0)', 's(6)', 'in_5', 'local_1', 'local_0', '.' ];
in2 = ['.', 'in_1', 'in_2', 's(1)', '.', 'local_1', '.', '.' ];
in3 = ['.', '.', '.', '.', '.', '.', '.', '.' ];
out1 = ['s(6)', 's(0)', 's(1)', '.', 's(4)', '.', 's(5)', 'local_0' ];
out2 = ['.', '.', '.', '.', 's(3)', '.', '.', '.' ];
out3 = ['.', '.', '.', '.', '.', '.', '.', '.' ];
comm = [false, true, false, false, false, false, false, false ];
gas = [1, 1, 1, 1, 1, 1, 1, 1 ];
sz = [1, 1, 1, 1, 1, 1, 1, 1 ];
stor = [false, false, false, true, true, true, false, false ];
lb = [ 1, 1, 1, 1, 1, 1, 1, 1 ];
ub = [ 16, 16, 16, 16, 16, 16, 16, 16 ];
startstack = [ 'in_0', 'in_1', 'in_2', 'in_3', 'in_4', 'in_5', null, null, null, null, null, null ];
endstack = [ 's(4)', 's(3)', null, null, null, null, null, null, null, null, null, null ];
